NAME : LPS-n5-m30
COMMENT : (Lartu-Peter-Santi Plot, instance 830 out of 39200. 5 customers.)
TYPE : CVRP
DIMENSION : 5
EDGE_WEIGHT_TYPE : EUC_2D
CAPACITY : 134
NODE_COORD_SECTION
 1 30 19
 2 84 95
 3 1 32
 4 21 16
 5 11 36
DEMAND_SECTION
1 0
2 70
3 63
4 127
5 26
DEPOT_SECTION
 1
 -1
EOF
